words_easy_train/words_501_UNSAT.qaiger
aag 35 16 0 1 19
16
32
26
22
24
6
12
28
2
18
4
10
30
8
20
14
70
34 11 7
36 34 15
38 9 3
40 13 5
42 40 38
44 42 36
46 29 23
48 21 19
50 31 27
52 50 25
54 52 48
56 54 46
58 57 44
60 33 17
62 61 58
64 45 32
66 65 61
68 67 59
70 69 63
i0 1 x2[7]
i1 2 y1[7]
i2 2 y1[4]
i3 2 y1[2]
i4 2 y1[3]
i5 1 x2[2]
i6 1 x2[5]
i7 2 y1[5]
i8 1 x2[0]
i9 2 y1[0]
i10 1 x2[1]
i11 1 x2[4]
i12 2 y1[6]
i13 1 x2[3]
i14 2 y1[1]
i15 1 x2[6]
o0 bv[0]
c
simplified
  >=
    or
      unary minus
        1 x2
      2 y1
    1
