words_easy_train/words_501_UNSAT.qaiger.qdimacs
p cnf 35 58
a 1 2 3 4 5 6 7 8 0
e 9 10 11 12 13 14 15 16 17 18 19 20 21 22 23 24 25 26 27 28 29 30 31 32 33 34 35 0
5 3 17 0
-5 -17 0
-3 -17 0
-17 7 18 0
17 -18 0
-7 -18 0
4 1 19 0
-4 -19 0
-1 -19 0
6 2 20 0
-6 -20 0
-2 -20 0
-20 -19 21 0
20 -21 0
19 -21 0
-21 -18 22 0
21 -22 0
18 -22 0
14 11 23 0
-14 -23 0
-11 -23 0
10 9 24 0
-10 -24 0
-9 -24 0
15 13 25 0
-15 -25 0
-13 -25 0
-25 12 26 0
25 -26 0
-12 -26 0
-26 -24 27 0
26 -27 0
24 -27 0
-27 -23 28 0
27 -28 0
23 -28 0
28 -22 29 0
-28 -29 0
22 -29 0
16 8 30 0
-16 -30 0
-8 -30 0
30 -29 31 0
-30 -31 0
29 -31 0
22 -16 32 0
-22 -32 0
16 -32 0
32 30 33 0
-32 -33 0
-30 -33 0
33 29 34 0
-33 -34 0
-29 -34 0
34 31 35 0
-34 -35 0
-31 -35 0
35 0
